6 24 4 10
9 14 11 6 14 3 7 4 1 12 14 10 9 6 17 6 2 20 14 18 13 16 14 19 
0.95 2.75 1.16 3.41 2.22 4.39 2.28 7.06 1.36 1.98 1.61 7.67 2.03 0.87 6.06 3.8 4.2 1.32 0.95 6.82 1.27 1.72 7.04 0.05 
6.24 3.37 7.8 2.06 0.96 7.33 1.08 3.87 6.95 3.99 0.28 5.2 6.19 6.75 5.75 2.19 4.05 6.3 2.33 4.03 1.75 7.08 2.55 2.47 
3.89 7.33 7.75 5.12 7.68 6.62 6.03 4.3 0.28 1.83 6.9 6.03 6.14 2.82 0.85 2.25 0.88 3.15 2.41 8 1.66 3.72 7.01 4.2 
3.18 1.91 7.44 1.83 4.5 1.01 1.07 4.74 4.18 6.79 6.2 6.64 1.71 0.69 3.83 1.1 0.49 3.44 2.28 7.09 7.79 3.62 5.03 3.69 
4 4 4 4 4 4 4 4 4 4 4 4 4 4 4 4 4 4 4 4 4 4 4 4 
1.77 7.85 1.46 6.27 1.86 2.56 0.16 1.43 5.39 0.04 2.72 4.79 2.56 0.79 1.84 4.42 7.58 2.36 0.34 1.56 6.19 0.97 2.28 6.2 
1 1 1 1 1 1 1 1 1 1 1 1 1 1 1 1 1 1 1 1 1 1 1 1 
1 1 1 1 1 1 1 1 1 1 1 1 1 1 1 1 1 1 1 1 1 1 1 1 
1 1 1 1 1 1 1 1 1 1 1 1 1 1 1 1 1 1 1 1 1 1 1 1 
1 1 1 1 1 1 1 1 1 1 1 1 1 1 1 1 1 1 1 1 1 1 1 1 
1 1 1 1 1 1 1 1 1 1 1 1 1 1 1 1 1 1 1 1 1 1 1 1 
1 1 1 1 1 1 1 1 1 1 1 1 1 1 1 1 1 1 1 1 1 1 1 1 
0.01 0.01 0.01 0.01 0.01 0.01 0.01 0.01 0.01 0.01 0.01 0.01 0.01 0.01 0.01 0.01 0.01 0.01 0.01 0.01 0.01 0.01 0.01 0.01 
0.02 0.02 0.02 0.02 0.02 0.02 0.02 0.02 0.02 0.02 0.02 0.02 0.02 0.02 0.02 0.02 0.02 0.02 0.02 0.02 0.02 0.02 0.02 0.02 
0.03 0.03 0.03 0.03 0.03 0.03 0.03 0.03 0.03 0.03 0.03 0.03 0.03 0.03 0.03 0.03 0.03 0.03 0.03 0.03 0.03 0.03 0.03 0.03 
0.04 0.04 0.04 0.04 0.04 0.04 0.04 0.04 0.04 0.04 0.04 0.04 0.04 0.04 0.04 0.04 0.04 0.04 0.04 0.04 0.04 0.04 0.04 0.04 
0.05 0.05 0.05 0.05 0.05 0.05 0.05 0.05 0.05 0.05 0.05 0.05 0.05 0.05 0.05 0.05 0.05 0.05 0.05 0.05 0.05 0.05 0.05 0.05 
1 1 1 1 1 1 1 1 1 1 1 1 1 1 1 1 1 1 1 1 1 1 1 1 
